r = [
0,134,45,164,80,157,86,8,118,27,36,0
];
p = [
0,12,27,21,10,15,25,23,10,23,18,0
];
e = [
0,16,20,3,19,17,6,12,12,20,19,0
];
d = [
0,151,72,226,106,172,111,60,167,50,94,237
];
d_bar = [
0,157,86,237,111,180,124,72,172,62,103,237
];
w = [
0,2.666666667,1.428571429,0.272727273,3.8,2.125,0.461538462,1,2.4,1.666666667,2.111111111,0
];
